(set-logic ALL)
(declare-fun var0 () String)
(assert (str.in_re var0 (re.++ (re.* (re.* (str.to_re "00"))) (re.++ (re.union (re.+ (str.to_re "111")) (re.+ (str.to_re "2"))) (re.++ (re.* (re.+ (str.to_re "33"))) (re.++ (re.* (re.union (str.to_re "4") (str.to_re "5"))) (re.++ (re.union (re.union (str.to_re "66") (str.to_re "77")) (re.union (str.to_re "8") (str.to_re "99"))) (re.++ (re.union (re.* (str.to_re "aaa")) (re.* (str.to_re "b"))) (re.++ (re.+ (re.* (str.to_re "ccc"))) (re.++ (re.+ (re.* (str.to_re "ddd"))) (re.++ (re.union (re.union (str.to_re "eee") (str.to_re "fff")) (re.union (str.to_re "gg") (str.to_re "h"))) (re.++ (re.* (re.union (str.to_re "iii") (str.to_re "jjj"))) (re.++ (re.+ (re.+ (str.to_re "kk"))) (re.++ (re.union (re.* (str.to_re "l")) (re.* (str.to_re "mmm"))) (re.++ (re.union (re.union (str.to_re "n") (str.to_re "o")) (re.union (str.to_re "ppp") (str.to_re "q"))) (re.++ (re.* (re.+ (str.to_re "rr"))) (re.++ (re.+ (re.* (str.to_re "sss"))) (re.++ (re.+ (re.* (str.to_re "tt"))) (re.++ (re.+ (re.union (str.to_re "uu") (str.to_re "v"))) (re.++ (re.+ (re.+ (str.to_re "www"))) (re.++ (re.* (re.* (str.to_re "x"))) (re.++ (re.* (re.* (str.to_re "y"))) (re.++ (re.* (re.* (str.to_re "z"))) (re.++ (re.* (re.+ (str.to_re "AA"))) (re.++ (re.union (re.union (str.to_re "BB") (str.to_re "CC")) (re.union (str.to_re "D") (str.to_re "EEE"))) (re.++ (re.* (re.* (str.to_re "F"))) (re.++ (re.+ (re.+ (str.to_re "GGG"))) (re.++ (re.union (re.* (str.to_re "H")) (re.* (str.to_re "II"))) (re.++ (re.* (re.* (str.to_re "JJJ"))) (re.++ (re.* (re.* (str.to_re "KKK"))) (re.++ (re.* (re.union (str.to_re "L") (str.to_re "MM"))) (re.++ (re.* (re.* (str.to_re "NN"))) (re.++ (re.union (re.union (str.to_re "O") (str.to_re "PPP")) (re.union (str.to_re "Q") (str.to_re "RRR"))) (re.++ (re.* (re.union (str.to_re "SSS") (str.to_re "TTT"))) (re.++ (re.+ (re.+ (str.to_re "UU"))) (re.++ (re.* (re.union (str.to_re "V") (str.to_re "WW"))) (re.++ (re.+ (re.* (str.to_re "XX"))) (re.++ (re.union (re.union (str.to_re "YYY") (str.to_re "ZZ")) (re.union (str.to_re "!") (str.to_re """"""""))) (re.++ (re.* (re.union (str.to_re "###") (str.to_re "$$$"))) (re.++ (re.+ (re.union (str.to_re "%%") (str.to_re "&&"))) (re.++ (re.union (re.+ (str.to_re "''")) (re.+ (str.to_re "("))) (re.++ (re.union (re.+ (str.to_re ")))")) (re.+ (str.to_re "*"))) (re.++ (re.union (re.union (str.to_re "++") (str.to_re ",")) (re.union (str.to_re "--") (str.to_re "."))) (re.++ (re.+ (re.+ (str.to_re "/"))) (re.++ (re.* (re.union (str.to_re "::") (str.to_re ";;;"))) (re.++ (re.union (re.union (str.to_re "<<") (str.to_re "=")) (re.union (str.to_re ">") (str.to_re "???"))) (re.++ (re.+ (re.* (str.to_re "@@@"))) (re.++ (re.union (re.+ (str.to_re "[[[")) (re.+ (str.to_re "\\\\"))) (re.++ (re.union (re.* (str.to_re "]]")) (re.* (str.to_re "^^"))) (re.++ (re.* (re.+ (str.to_re "___"))) (re.++ (re.union (re.+ (str.to_re "`")) (re.+ (str.to_re "{{{"))) (re.++ (re.union (re.+ (str.to_re "|")) (re.+ (str.to_re "}"))) (re.++ (re.* (re.union (str.to_re "~~~") (str.to_re "0"))) (re.++ (re.* (re.* (str.to_re "111"))) (re.++ (re.union (re.+ (str.to_re "2")) (re.+ (str.to_re "33"))) (re.++ (re.* (re.+ (str.to_re "444"))) (re.++ (re.* (re.* (str.to_re "55"))) (re.++ (re.+ (re.+ (str.to_re "66"))) (re.++ (re.* (re.+ (str.to_re "77"))) (re.++ (re.* (re.* (str.to_re "8"))) (re.++ (re.union (re.+ (str.to_re "999")) (re.+ (str.to_re "a"))) (re.++ (re.* (re.+ (str.to_re "bbb"))) (re.++ (re.+ (re.* (str.to_re "cc"))) (re.++ (re.union (re.* (str.to_re "dd")) (re.* (str.to_re "eee"))) (re.++ (re.union (re.+ (str.to_re "f")) (re.+ (str.to_re "ggg"))) (re.++ (re.union (re.* (str.to_re "h")) (re.* (str.to_re "ii"))) (re.++ (re.union (re.* (str.to_re "jj")) (re.* (str.to_re "kkk"))) (re.++ (re.union (re.* (str.to_re "lll")) (re.* (str.to_re "m"))) (re.++ (re.union (re.union (str.to_re "nn") (str.to_re "o")) (re.union (str.to_re "pp") (str.to_re "q"))) (re.++ (re.+ (re.* (str.to_re "r"))) (re.++ (re.* (re.* (str.to_re "sss"))) (re.++ (re.+ (re.+ (str.to_re "t"))) (re.++ (re.union (re.union (str.to_re "uuu") (str.to_re "vv")) (re.union (str.to_re "ww") (str.to_re "x"))) (re.++ (re.union (re.+ (str.to_re "yyy")) (re.+ (str.to_re "z"))) (re.++ (re.* (re.+ (str.to_re "A"))) (re.++ (re.union (re.union (str.to_re "B") (str.to_re "CCC")) (re.union (str.to_re "DD") (str.to_re "EE"))) (re.++ (re.union (re.+ (str.to_re "FF")) (re.+ (str.to_re "G"))) (re.++ (re.+ (re.+ (str.to_re "HH"))) (re.++ (re.+ (re.* (str.to_re "I"))) (re.++ (re.+ (re.* (str.to_re "JJJ"))) (re.++ (re.+ (re.union (str.to_re "KKK") (str.to_re "LL"))) (re.++ (re.+ (re.* (str.to_re "M"))) (re.++ (re.union (re.+ (str.to_re "N")) (re.+ (str.to_re "OO"))) (re.++ (re.union (re.+ (str.to_re "PP")) (re.+ (str.to_re "QQ"))) (re.++ (re.union (re.+ (str.to_re "RRR")) (re.+ (str.to_re "SSS"))) (re.++ (re.* (re.+ (str.to_re "TTT"))) (re.++ (re.+ (re.+ (str.to_re "UUU"))) (re.++ (re.* (re.* (str.to_re "VVV"))) (re.++ (re.+ (re.union (str.to_re "WW") (str.to_re "X"))) (re.++ (re.+ (re.union (str.to_re "YY") (str.to_re "ZZ"))) (re.++ (re.+ (re.union (str.to_re "!!") (str.to_re """"))) (re.++ (re.* (re.union (str.to_re "###") (str.to_re "$$$"))) (re.++ (re.union (re.+ (str.to_re "%")) (re.+ (str.to_re "&"))) (re.++ (re.* (re.+ (str.to_re "''"))) (re.++ (re.* (re.union (str.to_re "(") (str.to_re ")"))) (re.++ (re.union (re.* (str.to_re "*")) (re.* (str.to_re "+++"))) (re.++ (re.+ (re.union (str.to_re ",,,") (str.to_re "-"))) (re.++ (re.+ (re.+ (str.to_re ".."))) (re.++ (re.* (re.+ (str.to_re "//"))) (re.++ (re.union (re.+ (str.to_re ":")) (re.+ (str.to_re ";"))) (re.++ (re.union (re.+ (str.to_re "<<")) (re.+ (str.to_re "=="))) (re.++ (re.* (re.* (str.to_re ">>"))) (re.++ (re.* (re.* (str.to_re "?"))) (re.++ (re.* (re.+ (str.to_re "@@"))) (re.++ (re.union (re.+ (str.to_re "[[")) (re.+ (str.to_re "\\\\"))) (re.++ (re.union (re.union (str.to_re "]") (str.to_re "^^")) (re.union (str.to_re "__") (str.to_re "```"))) (re.++ (re.+ (re.union (str.to_re "{{{") (str.to_re "|||"))) (re.++ (re.+ (re.* (str.to_re "}}}"))) (re.++ (re.+ (re.union (str.to_re "~~~") (str.to_re "0"))) (re.++ (re.* (re.* (str.to_re "1"))) (re.++ (re.union (re.union (str.to_re "222") (str.to_re "3")) (re.union (str.to_re "44") (str.to_re "5"))) (re.++ (re.union (re.+ (str.to_re "6")) (re.+ (str.to_re "777"))) (re.++ (re.+ (re.+ (str.to_re "8"))) (re.++ (re.* (re.+ (str.to_re "999"))) (re.++ (re.+ (re.+ (str.to_re "aa"))) (re.++ (re.union (re.* (str.to_re "b")) (re.* (str.to_re "c"))) (re.++ (re.* (re.+ (str.to_re "dd"))) (re.++ (re.union (re.+ (str.to_re "e")) (re.+ (str.to_re "fff"))) (re.++ (re.+ (re.+ (str.to_re "gg"))) (re.++ (re.union (re.+ (str.to_re "hhh")) (re.+ (str.to_re "ii"))) (re.++ (re.+ (re.* (str.to_re "jjj"))) (re.++ (re.+ (re.* (str.to_re "kkk"))) (re.++ (re.* (re.+ (str.to_re "ll"))) (re.++ (re.* (re.* (str.to_re "mm"))) (re.++ (re.union (re.* (str.to_re "nn")) (re.* (str.to_re "oo"))) (re.++ (re.* (re.* (str.to_re "p"))) (re.++ (re.union (re.* (str.to_re "qq")) (re.* (str.to_re "rr"))) (re.++ (re.union (re.union (str.to_re "sss") (str.to_re "tt")) (re.union (str.to_re "u") (str.to_re "vv"))) (re.++ (re.* (re.* (str.to_re "www"))) (re.++ (re.+ (re.+ (str.to_re "xxx"))) (re.++ (re.+ (re.+ (str.to_re "y"))) (re.++ (re.union (re.+ (str.to_re "zzz")) (re.+ (str.to_re "AA"))) (re.++ (re.+ (re.union (str.to_re "B") (str.to_re "CC"))) (re.++ (re.* (re.* (str.to_re "D"))) (re.++ (re.union (re.* (str.to_re "EEE")) (re.* (str.to_re "FFF"))) (re.++ (re.union (re.+ (str.to_re "G")) (re.+ (str.to_re "HHH"))) (re.++ (re.* (re.* (str.to_re "III"))) (re.++ (re.+ (re.* (str.to_re "J"))) (re.++ (re.* (re.union (str.to_re "KKK") (str.to_re "L"))) (re.++ (re.+ (re.* (str.to_re "MMM"))) (re.++ (re.union (re.union (str.to_re "N") (str.to_re "OO")) (re.union (str.to_re "P") (str.to_re "QQQ"))) (re.++ (re.union (re.* (str.to_re "R")) (re.* (str.to_re "SS"))) (re.++ (re.* (re.* (str.to_re "TTT"))) (re.++ (re.* (re.* (str.to_re "U"))) (re.++ (re.union (re.union (str.to_re "V") (str.to_re "WW")) (re.union (str.to_re "XXX") (str.to_re "Y"))) (re.++ (re.* (re.* (str.to_re "Z"))) (re.++ (re.* (re.* (str.to_re "!"))) (re.++ (re.union (re.* (str.to_re """""""")) (re.* (str.to_re "###"))) (re.++ (re.union (re.* (str.to_re "$$")) (re.* (str.to_re "%"))) (re.++ (re.* (re.+ (str.to_re "&&&"))) (re.++ (re.union (re.+ (str.to_re "''")) (re.+ (str.to_re "(("))) (re.++ (re.+ (re.union (str.to_re ")") (str.to_re "*"))) (re.++ (re.* (re.* (str.to_re "+++"))) (re.++ (re.+ (re.* (str.to_re ",,"))) (re.++ (re.union (re.+ (str.to_re "--")) (re.+ (str.to_re ".."))) (re.++ (re.+ (re.+ (str.to_re "//"))) (re.++ (re.union (re.* (str.to_re ":")) (re.* (str.to_re ";"))) (re.++ (re.* (re.union (str.to_re "<<<") (str.to_re "=="))) (re.++ (re.* (re.* (str.to_re ">>>"))) (re.++ (re.+ (re.+ (str.to_re "?"))) (re.++ (re.+ (re.* (str.to_re "@@@"))) (re.++ (re.+ (re.+ (str.to_re "[["))) (re.++ (re.+ (re.+ (str.to_re "\\"))) (re.+ (re.* (str.to_re "]]"))))))))))))))))))))))))))))))))))))))))))))))))))))))))))))))))))))))))))))))))))))))))))))))))))))))))))))))))))))))))))))))))))))))))))))))))))))))))))))))))))))))
(check-sat)